%%% static parameters %%%
timespan = 1;
Fact = [4];
Distr1 = [15];
Distr2 = [30];
Clients_N = [300];
Demand_W = [15];
Lt0 = [4];
Lt1 = [4];
SS_ = [0.85];
DS_D = [8];
K = [200];
MA = [500];
%%% dynamic parameters %%%
lost_ratio_sales_ret_th = 0.06991517208399511;
lost_ratio_sales_ret_w = 30;
lost_ratio_sales_dis_th = 0.29371128421589077;
lost_ratio_sales_dis_w = 20;
lost_ratio_sales_fac_th = 0.9016104240624943;
lost_ratio_sales_fac_w = 79;
stock_customer_MA_mean_relative_th = 0.721875427436684;
stock_customer_MA_mean_relative_w = 2;
stock_distributor_MA_mean_relative_th = 0.9145244914449534;
stock_distributor_MA_mean_relative_w = 5;
stock_retailer_MA_mean_relative_th = 0.08717458571045911;
stock_retailer_MA_mean_relative_w = 64;
stock_factory_MA_mean_relative_th = 0.8413513167822041;
stock_factory_MA_mean_relative_w = 53;
